c User generated cnf file
p cnf 13 66
4 7 -6 0 
7 13 -9 0 
9 -10 4 0 
1 -5 11 0 
12 4 -7 0 
1 -12 11 0 
8 4 -4 0 
4 -4 8 0 
13 -6 12 0 
9 -1 10 0 
9 4 -12 0 
13 3 -12 0 
9 8 -9 0 
3 -2 1 0 
3 -2 6 0 
5 -13 3 0 
2 -11 6 0 
8 7 -5 0 
2 7 -11 0 
11 11 -8 0 
4 -13 10 0 
8 10 -2 0 
11 -13 13 0 
13 9 -1 0 
12 -4 10 0 
7 9 -3 0 
6 8 -9 0 
10 4 -11 0 
9 1 -11 0 
1 -12 12 0 
5 8 -1 0 
5 10 -11 0 
11 7 -8 0 
1 -9 5 0 
12 -9 13 0 
4 8 -1 0 
13 -11 7 0 
5 -2 2 0 
12 1 -12 0 
11 -12 7 0 
1 -8 2 0 
9 1 -4 0 
2 -7 4 0 
12 2 -7 0 
2 -7 6 0 
8 -6 9 0 
9 2 -6 0 
6 -11 11 0 
7 6 -12 0 
4 -10 6 0 
8 8 -13 0 
6 2 -12 0 
1 9 -9 0 
7 6 -2 0 
9 3 -11 0 
8 -6 4 0 
10 3 -13 0 
1 9 -6 0 
13 11 -3 0 
12 -11 7 0 
7 -3 1 0 
6 -6 10 0 
11 -11 7 0 
8 2 -9 0 
13 -10 9 0 
12 -3 9 0 
